(declare-fun ExpandObjSwitcher () Real)
(declare-fun Constructed_Argument_t () String)
(declare-fun Constructed_Argument_2_t () String)
(declare-fun CreateAsClass () Bool)
(assert (= ExpandObjSwitcher 0.0))
(assert (= Constructed_Argument_t "string"))
(assert (= Constructed_Argument_2_t "null"))
(assert CreateAsClass)
(check-sat)
